p cnf 12 50 
1 -9 11 0
10 11 5 0
-1 2 -10 0
-2 -7 11 0
10 -11 -2 0
-6 10 -9 0
5 -1 6 0
2 -8 10 0
7 -3 -1 0
1 5 -12 0
10 6 -12 0
-9 -4 -5 0
7 1 9 0
5 -8 7 0
6 4 8 0
-9 5 -12 0
-4 9 11 0
-1 10 3 0
-10 -8 11 0
3 -4 -6 0
9 12 -10 0
9 12 11 0
5 -1 9 0
-4 -6 -11 0
11 4 6 0
7 2 -10 0
-11 3 5 0
8 12 -6 0
-4 -11 -2 0
-10 -9 -4 0
-2 -7 -5 0
9 -12 -5 0
8 6 -9 0
8 12 -2 0
-6 -12 4 0
-4 -11 5 0
-5 6 3 0
-7 6 -11 0
-5 6 9 0
3 8 12 0
-12 11 7 0
7 -11 -8 0
-4 9 2 0
-6 -2 -5 0
-9 -8 2 0
-4 -7 10 0
6 9 11 0
10 4 -5 0
11 -5 -10 0
-3 -1 7 0
